RT is False
Default write of storage_offers_DA.csv just to have a file (but constraint should be inactive)
Reading model...
...model read.
creating competitive generators file...
...competitive generators recorded.
Loading data...
.. day-ahead data read.
Compiling instance...
...instance created.
Creating Offer Mitigation (model will solve as dispatch if TRUE)...
NOTE: storage offers will not be mitigated
...storage offer mitigation file created
Converting model to MPEC...
...converted
NOTE: initial MIP solve with only storage competitive to get feasible solution
Solving...

Welcome to IBM(R) ILOG(R) CPLEX(R) Interactive Optimizer 12.9.0.0
  with Simplex, Mixed Integer & Barrier Optimizers
5725-A06 5725-A29 5724-Y48 5724-Y49 5724-Y54 5724-Y55 5655-Y21
Copyright IBM Corp. 1988, 2019.  All Rights Reserved.

Type 'help' for a list of available commands.
Type 'help' followed by a command name for more
information on commands.

CPLEX> Logfile 'cplex.log' closed.
Logfile 'C:\Users\Luke\Desktop\test919\logs\tmpkm7o2q9s.cplex.log' open.
CPLEX> New value for parallel optimization mode: -1
CPLEX> New value for mixed integer optimality gap tolerance: 0.01
CPLEX> New value for integrality tolerance: 1e-09
CPLEX> New value for feasibility tolerance: 0.01
CPLEX> New value for deterministic time limit in ticks: 75000
CPLEX> Problem 'C:\Users\Luke\Desktop\test919\logs\tmpae92fqb3.pyomo.lp' read.
Read time = 0.20 sec. (14.73 ticks)
CPLEX> Problem name         : C:\Users\Luke\Desktop\test919\logs\tmpae92fqb3.pyomo.lp
Objective sense      : Maximize
Variables            :   53805  [Nneg: 1,  Box: 22000,  Free: 4464,
                                 Binary: 27340]
Objective nonzeros   :    8985
Linear constraints   :  123205  [Less: 41346,  Greater: 59096,  Equal: 22763]
  Nonzeros           :  291709
  RHS nonzeros       :   67447

Variables            : Min LB: -5000.000        Max UB: 1000000.       
Objective nonzeros   : Min   : 0.2000000        Max   : 2500.000       
Linear constraints   :
  Nonzeros           : Min   : 0.2000000        Max   : 1000000.       
  RHS nonzeros       : Min   : 0.2000000        Max   : 1000000.       
CPLEX> CPXPARAM_Parallel                                -1
CPXPARAM_Simplex_Tolerances_Feasibility          0.01
CPXPARAM_DetTimeLimit                            75000
CPXPARAM_MIP_Tolerances_MIPGap                   0.01
CPXPARAM_MIP_Tolerances_Integrality              1.0000000000000001e-09
Tried aggregator 3 times.
MIP Presolve eliminated 88956 rows and 19254 columns.
MIP Presolve added 3332 rows and 0 columns.
MIP Presolve modified 24728 coefficients.
Aggregator did 12964 substitutions.
Reduced MIP has 24617 rows, 21005 columns, and 70256 nonzeros.
Reduced MIP has 8297 binaries, 0 generals, 0 SOSs, and 0 indicators.
Presolve time = 0.23 sec. (173.47 ticks)
Probing fixed 381 vars, tightened 2766 bounds.
Probing time = 1.34 sec. (861.94 ticks)
Tried aggregator 2 times.
MIP Presolve eliminated 863 rows and 764 columns.
MIP Presolve modified 2169 coefficients.
Aggregator did 38 substitutions.
Reduced MIP has 23716 rows, 20203 columns, and 67652 nonzeros.
Reduced MIP has 7915 binaries, 0 generals, 0 SOSs, and 0 indicators.
Presolve time = 0.09 sec. (69.16 ticks)
Probing time = 0.03 sec. (15.67 ticks)
Clique table members: 6244.
MIP emphasis: balance optimality and feasibility.
MIP search method: dynamic search.
Parallel mode: opportunistic, using up to 24 threads.
Root relaxation solution time = 0.41 sec. (305.42 ticks)

        Nodes                                         Cuts/
   Node  Left     Objective  IInf  Best Integer    Best Bound    ItCnt     Gap

      0     0     3687.2321  1905                   3687.2321     7147         
      0     0     3687.2321   689                   Cuts: 748     7514         
      0     0     3687.2321   557                   Cuts: 520     7767         
      0     0     3687.2321   470                   Cuts: 256     7873         
      0     0     3687.2321   452                    Cuts: 86     7911         
      0     0     3687.2321   430                    Cuts: 80     7943         
      0     0     3687.2321   415                    Cuts: 86     7967         
      0     0     3687.2321   411                    Cuts: 36     7972         
      0     0     3687.2321   409                    Cuts: 36     7974         
      0     7    infeasible                           Cuts: 6     8053         
Elapsed time = 10.47 sec. (6880.87 ticks, tree = 0.02 MB, solutions = 0)
    395    71    -6324.0124   387                   3649.6772     9914         
    853   122    -1306.0558   357                   3649.6772    10044         
   1313   841     1322.4278   329                   3649.6772    23294         
   1942  1141    -1261.8544   369                   3649.6772    24003         
   2799  1498     1372.5334   338                   3649.6772    25102         
   3458  2663     1708.5706   320                   3649.6772    26260         
   4107  3136    -3456.4193   344                   3649.6772    26809         
   5053  3113     -322.3880   283                   3649.6772    26738         
   6110  4802     1708.5706   289                   3649.6772    27777         
*  6652+ 5608                        -2499.2086     3649.6772           246.03%
Elapsed time = 17.06 sec. (9148.98 ticks, tree = 44.92 MB, solutions = 1)
*  8382  6169      integral     0     1593.2027     3649.6772    27929  129.08%
*  8481  5552      integral     0     3635.7971     3649.6772    27870    0.38%

Clique cuts applied:  20
Cover cuts applied:  2
Implied bound cuts applied:  43
Flow cuts applied:  473
Mixed integer rounding cuts applied:  37
Gomory fractional cuts applied:  59

Root node processing (before b&c):
  Real time             =    9.91 sec. (6866.02 ticks)
Parallel b&c, 24 threads:
  Real time             =    8.28 sec. (3011.00 ticks)
  Sync time (average)   =    0.29 sec.
  Wait time (average)   =    0.00 sec.
                          ------------
Total (root+branch&cut) =   18.19 sec. (9877.01 ticks)

Solution pool: 6 solutions saved.

MIP - Integer optimal, tolerance (0.01/1e-06):  Objective =  3.6357970786e+03
Current MIP best bound =  3.6496771738e+03 (gap = 13.8801, 0.38%)
Solution time =   18.19 sec.  Iterations = 29108  Nodes = 8662 (522)
Deterministic time = 9877.17 ticks  (543.09 ticks/sec)

CPLEX> Incumbent solution written to file 'C:\Users\Luke\Desktop\test919\logs\tmp2p3srurt.cplex.sol'.
CPLEX> NOTE: no warmstart specified for MIP iteration, default behavior is true
NOTE: resolving with all competitive generators using storage-only solution to warmstart
Solving...

Welcome to IBM(R) ILOG(R) CPLEX(R) Interactive Optimizer 12.9.0.0
  with Simplex, Mixed Integer & Barrier Optimizers
5725-A06 5725-A29 5724-Y48 5724-Y49 5724-Y54 5724-Y55 5655-Y21
Copyright IBM Corp. 1988, 2019.  All Rights Reserved.

Type 'help' for a list of available commands.
Type 'help' followed by a command name for more
information on commands.

CPLEX> Logfile 'cplex.log' closed.
Logfile 'C:\Users\Luke\Desktop\test919\logs\tmp3wmmq0x2.cplex.log' open.
CPLEX> New value for parallel optimization mode: -1
CPLEX> New value for mixed integer optimality gap tolerance: 0.01
CPLEX> New value for integrality tolerance: 1e-09
CPLEX> New value for feasibility tolerance: 0.01
CPLEX> New value for deterministic time limit in ticks: 75000
CPLEX> Problem 'C:\Users\Luke\Desktop\test919\logs\tmpam05hm9j.pyomo.lp' read.
Read time = 0.20 sec. (14.75 ticks)
CPLEX> MIP start file 'C:\Users\Luke\Desktop\test919\logs\tmp5j8gyo66.cplex.mst' read.
CPLEX> Problem name         : C:\Users\Luke\Desktop\test919\logs\tmpam05hm9j.pyomo.lp
Objective sense      : Maximize
Variables            :   54525  [Nneg: 1,  Box: 22720,  Free: 4464,
                                 Binary: 27340]
Objective nonzeros   :    9705
Linear constraints   :  123205  [Less: 41346,  Greater: 59096,  Equal: 22763]
  Nonzeros           :  291709
  RHS nonzeros       :   67447

Variables            : Min LB: -5000.000        Max UB: 1000000.       
Objective nonzeros   : Min   : 0.2000000        Max   : 2500.000       
Linear constraints   :
  Nonzeros           : Min   : 0.2000000        Max   : 1000000.       
  RHS nonzeros       : Min   : 0.2000000        Max   : 1000000.       
CPLEX> CPXPARAM_Parallel                                -1
CPXPARAM_Simplex_Tolerances_Feasibility          0.01
CPXPARAM_DetTimeLimit                            75000
CPXPARAM_MIP_Tolerances_MIPGap                   0.01
CPXPARAM_MIP_Tolerances_Integrality              1.0000000000000001e-09
Warning:  No solution found from 1 MIP starts.
Retaining values of one MIP start for possible repair.
Tried aggregator 3 times.
MIP Presolve eliminated 88956 rows and 19974 columns.
MIP Presolve added 3332 rows and 0 columns.
MIP Presolve modified 24728 coefficients.
Aggregator did 12964 substitutions.
Reduced MIP has 24617 rows, 21005 columns, and 70256 nonzeros.
Reduced MIP has 8297 binaries, 0 generals, 0 SOSs, and 0 indicators.
Presolve time = 0.25 sec. (173.83 ticks)
Probing fixed 381 vars, tightened 2766 bounds.
Probing time = 1.39 sec. (861.94 ticks)
Tried aggregator 2 times.
MIP Presolve eliminated 863 rows and 764 columns.
MIP Presolve modified 2169 coefficients.
Aggregator did 38 substitutions.
Reduced MIP has 23716 rows, 20203 columns, and 67652 nonzeros.
Reduced MIP has 7915 binaries, 0 generals, 0 SOSs, and 0 indicators.
Presolve time = 0.09 sec. (69.16 ticks)
Probing time = 0.03 sec. (15.67 ticks)
Clique table members: 6244.
MIP emphasis: balance optimality and feasibility.
MIP search method: dynamic search.
Parallel mode: opportunistic, using up to 24 threads.
Root relaxation solution time = 0.42 sec. (305.42 ticks)

        Nodes                                         Cuts/
   Node  Left     Objective  IInf  Best Integer    Best Bound    ItCnt     Gap

      0     0     3687.2321  1905                   3687.2321     7147         
      0     0     3687.2321   689                   Cuts: 748     7514         
      0     0     3687.2321   557                   Cuts: 520     7767         
      0     0     3687.2321   470                   Cuts: 256     7873         
      0     0     3687.2321   452                    Cuts: 86     7911         
      0     0     3687.2321   430                    Cuts: 80     7943         
      0     0     3687.2321   415                    Cuts: 86     7967         
      0     0     3687.2321   411                    Cuts: 36     7972         
      0     0     3687.2321   409                    Cuts: 36     7974         
Repair heuristic found nothing.
      0    10    infeasible                           Cuts: 6     8724         
Elapsed time = 10.56 sec. (6911.57 ticks, tree = 0.02 MB, solutions = 0)
    323    42     3635.7971   376                   3649.6772     9346         
    851   213   -16072.4245   356                   3649.6772    10923         
   1355   940     1385.9316   347                   3649.6772    16625         
   2313  1262     3648.0242   358                   3649.6772    18272         
   3137  2337     1322.4278   331                   3649.6772    19289         
   3742  2388     1051.5067   327                   3649.6772    19300         
   4277  3044    infeasible                         3649.6772    20415         
   4937  3913     3635.7971   262                   3649.6772    26303         
   5737  4241     1753.3450   319                   3649.6772    26668         
*  6710+ 4486                         1050.6164     3649.6772           247.38%
Elapsed time = 17.52 sec. (9309.39 ticks, tree = 35.33 MB, solutions = 1)
*  8000  4958      integral     0     1753.3527     3649.6772    32080  108.15%
*  8364  5780      integral     0     3567.7241     3649.6772    32186    2.30%
*  8554  6031      integral     0     3635.7564     3649.6772    32479    0.38%
*  8795  4464      integral     0     3637.4094     3649.6772    32512    0.34%
*  8796  4338      integral     0     3637.4094     3649.6772    32527    0.34%

Clique cuts applied:  20
Cover cuts applied:  2
Implied bound cuts applied:  44
Flow cuts applied:  471
Mixed integer rounding cuts applied:  37
Gomory fractional cuts applied:  59

Root node processing (before b&c):
  Real time             =   10.08 sec. (6906.03 ticks)
Parallel b&c, 24 threads:
  Real time             =    8.70 sec. (3213.94 ticks)
  Sync time (average)   =    0.30 sec.
  Wait time (average)   =    0.00 sec.
                          ------------
Total (root+branch&cut) =   18.78 sec. (10119.97 ticks)

Solution pool: 13 solutions saved.

MIP - Integer optimal, tolerance (0.01/1e-06):  Objective =  3.6374093768e+03
Current MIP best bound =  3.6496771738e+03 (gap = 12.2678, 0.34%)
Solution time =   18.80 sec.  Iterations = 36180  Nodes = 8797 (677)
Deterministic time = 10120.13 ticks  (538.39 ticks/sec)

CPLEX> Incumbent solution written to file 'C:\Users\Luke\Desktop\test919\logs\tmpelksz1qn.cplex.sol'.
CPLEX> Exporting results... 
